Comps = {frontend0, frontend1, backend0, backend1, backend2, database0, database1};
mustComps = {frontend0, frontend1};
Flavs = {tiny, medium, large};
Nodes = {n1, n2, n3, n4};
CRes = {CPU, RAM, storage, bwIn, bwOut};
NRes = {ssl, fwall, encr, avail, latency};
Flav = [{medium, large}, {medium, large}, {tiny, medium, large}, {tiny, medium, large}, {tiny, medium, large}, {large}, {large}];
Uses = [{backend2}, {backend1}, {backend2}, {backend1}, {}, {}, {}, {database1}, {database0}, {database0}, {database1}, {database0}, {database0}, {}, {}];
MAX_BOUND = 1000000;

worstBounds = [0, 0, 0, 0, 0, 0, 0, 0, 0, MAX_BOUND];
bestBounds = [MAX_BOUND - i | i in worstBounds];

comReq = array2d(CompFlavs, Res, [
  2, 254, 418, 766, 597, 1, 1, 1, 95, MAX_BOUND,
  2, 216, 463, 492, 859, 0, 1, 0, 97, MAX_BOUND,
  8, 321, 300, 992, 284, 0, 1, 0, 96, MAX_BOUND,
  8, 258, 200, 333, 970, 0, 0, 0, 96, MAX_BOUND,
  2, 365, 208, 932, 865, 1, 1, 1, 95, MAX_BOUND,
  4, 348, 337, 288, 787, 0, 1, 0, 95, MAX_BOUND,
  2, 232, 431, 241, 435, 1, 1, 1, 95, MAX_BOUND,
  4, 214, 439, 981, 535, 1, 1, 1, 96, MAX_BOUND,
  2, 451, 466, 994, 902, 1, 1, 1, 95, MAX_BOUND,
  8, 238, 408, 759, 747, 1, 1, 1, 96, MAX_BOUND,
  2, 236, 454, 552, 332, 1, 1, 0, 95, MAX_BOUND,
  2, 462, 263, 494, 318, 1, 1, 0, 97, MAX_BOUND,
  2, 305, 316, 323, 232, 1, 1, 0, 96, MAX_BOUND,
  8, 215, 283, 666, 863, 1, 1, 0, 95, MAX_BOUND,
  4, 247, 247, 274, 300, 0, 1, 0, 97, MAX_BOUND,
]);

nodeCap = array2d(Nodes0, Res, [bestBounds[r] | r in Res] ++ [
  16, 39808, 199190, 16230, 24989, 1, 1, 1, 99, 0,
  32, 29078, 967801, 16157, 13297, 0, 0, 1, 99, 0,
  32, 125612, 827249, 17599, 23963, 1, 1, 1, 98, 0,
  8, 65149, 470401, 10802, 10290, 1, 1, 1, 99, 0,
]);

cost = array2d(Nodes0, Res, [
  0, 0, 0, 0, 0, 0, 0, 0, 0, 0, % no node
  12, 7, 15, 0, 0, 0, 0, 0, 0, 0,
  12, 5, 18, 0, 0, 0, 0, 0, 0, 0,
  15, 10, 23, 0, 0, 0, 0, 0, 0, 0,
  20, 10, 22, 0, 0, 0, 0, 0, 0, 0,
]);

cons = array2d(Nodes0, Res, [
  0, 0, 0, 0, 0, 0, 0, 0, 0, 0, % no node
  3, 23, 43, 0, 0, 0, 0, 0, 0, 0,
  47, 48, 3, 0, 0, 0, 0, 0, 0, 0,
  13, 34, 33, 0, 0, 0, 0, 0, 0, 0,
  7, 47, 41, 0, 0, 0, 0, 0, 0, 0,
]);

costWeight = 0;
consWeight = 1;

costBudget = 46394;
consBudget = 50095;

depReq = array3d(Comps, Comps, Res, [
  if c1 = frontend0 /\ c2 = backend2 /\ r = N(avail) then
    97
  elseif c1 = frontend1 /\ c2 = backend2 /\ r = N(avail) then
    96
  elseif c1 = frontend0 /\ c2 = backend0 /\ r = N(avail) then
    97
  elseif c1 = frontend0 /\ c2 = backend1 /\ r = N(avail) then
    97
  elseif c1 = frontend1 /\ c2 = backend1 /\ r = N(avail) then
    95
  elseif c1 = frontend1 /\ c2 = backend0 /\ r = N(avail) then
    95
  else
    worstBounds[r]
  endif | c1 in Comps, c2 in Comps, r in Res]);

linkCap = array3d(Nodes0, Nodes0, Res, [
  if ni = 0 \/ nj = 0 then
    bestBounds[r]
  elseif ni = nj /\ r = N(avail) then
    nodeCap[ni,r]
  elseif {ni, nj} = {n1, n4} /\ r = N(avail) then
    98
  elseif {ni, nj} = {n1, n3} /\ r = N(avail) then
    99
  elseif {ni, nj} = {n1, n2} /\ r = N(avail) then
    99
  elseif {ni, nj} = {n3, n4} /\ r = N(avail) then
    99
  elseif {ni, nj} = {n2, n4} /\ r = N(avail) then
    99
  elseif {ni, nj} = {n2, n3} /\ r = N(avail) then
    98
  else
    worstBounds[r]
  endif | ni in Nodes0, nj in Nodes0, r in Res]);

imp = array2d(Comps, Flavs, [
  4, 5, 10,
  4, 6, 10,
  1, 4, 6,
  2, 4, 8,
  1, 9, 10,
  2, 3, 7,
  4, 5, 9,
]);

